# vtk DataFile Version 1.0
results.vtk  2D Unstructured Grid of Linear Triangles
ASCII

DATASET UNSTRUCTURED_GRID
POINTS 138 double
2 5 0
2.56465 4.10576 0
3 5 0
0 5 0
0.5 4.17653 0
1 5 0
-2 5 0
-1.5 4.17653 0
-1 5 0
-2.56465 4.10576 0
-3.62383 4.13213 0
-3 5 0
-5 5 0
-5 4 0
-4 5 0
-0.5 4.17653 0
1.5 4.17653 0
3.62382 4.13215 0
4 5 0
-4.16814 2.5042 0
-4.18189 3.48032 0
-5 3 0
5 4 0
5 5 0
-4.17653 0.5 0
-4.17653 1.5 0
-5 1 0
-5 -2 0
-4.17653 -1.5 0
-5 -1 0
-4.10576 -2.56465 0
-4.13213 -3.62383 0
-5 -3 0
-5 -5 0
-4 -5 0
-5 -4 0
-4.17653 -0.5 0
-5 0 0
-1.5 -4.17653 0
-2.5042 -4.16814 0
-2 -5 0
-0.5 -4.17653 0
-1 -5 0
0.5 -2.5296 0
0 -3.35307 0
1 -3.35307 0
4 -5 0
3.48905 -4.14984 0
3 -5 0
5 -5 0
5 -4 0
2.54488 -4.11111 0
2 -5 0
1.5 -4.17653 0
1 -5 0
4.1615 -3.61779 0
0.5 -4.17653 0
0 -5 0
4.15489 -2.53368 0
5 -3 0
4.17653 1.5 0
4.17653 0.5 0
5 1 0
4.16896 2.50425 0
3.35301 2.00914 0
4.18188 3.48066 0
5 3 0
-5 2 0
-3.23639 3.12084 0
-2.5296 2.5 0
-2.05166 3.33295 0
5 0 0
5 2 0
-1 3.35307 0
0 3.35307 0
-3.35307 1 0
-3 -5 0
-3.48032 -4.18189 0
-3.12084 -3.23639 0
-2.5 -2.5296 0
-3.33295 -2.05166 0
-3.35307 -1 0
-2.00865 -3.35344 0
4.17653 -1.5 0
5 -2 0
5 -1 0
3.35307 -1 0
4.17653 -0.5 0
3.2341 -3.12605 0
3.35338 -2.0089 0
2.05166 3.33295 0
1 3.35307 0
3.23615 3.12056 0
3.35307 1 0
2.5296 2.5 0
-3.35307 0 0
3.35307 0 0
2.05152 -3.33266 0
2.5296 -2.5 0
1.89472 -1.765 0
1.5 -2.5296 0
-1 -3.35307 0
2.5296 -0.5 0
-2.5296 -1.5 0
-0.5 -2.5296 0
-1.47277 -2.58286 0
2.5296 0.5 0
-3.35345 2.00866 0
-0.5 2.5296 0
0.5 2.5296 0
-1.5 2.5296 0
2.57783 1.46973 0
-2.58313 1.47291 0
-2.5296 0.5 0
1.5904 -0.910619 0
2.57841 -1.47013 0
1.5 2.5296 0
-0.963273 -1.6484 0
-1 1.70613 0
-1.89965 1.78046 0
-2.5296 -0.5 0
-0.0131666 1.68391 0
-1.70613 -1 0
-1.77994 -1.89965 0
0.441861 -0.845801 0
-0.0529632 -1.61558 0
1 -1.70613 0
1 1.70613 0
1.89386 1.76312 0
1.73376 -0.00222283 0
-1.60332 0.0358645 0
1.59563 0.902467 0
-0.766044 -0.543898 0
-0.622686 0.73565 0
0.898033 -0.0177889 0
-1.65454 0.96346 0
0.511437 0.883334 0
-0.0232713 0.0479891 0
CELLS 234 936
3 0 1 2
3 3 4 5
3 6 7 8
3 9 7 6
3 10 9 11
3 12 13 14
3 15 3 8
3 16 0 5
3 10 14 13
3 17 18 2
3 19 20 21
3 22 23 18
3 24 25 26
3 27 28 29
3 30 28 27
3 31 30 32
3 33 34 35
3 31 35 34
3 36 37 29
3 38 39 40
3 41 38 42
3 43 44 45
3 46 47 48
3 49 50 46
3 51 52 48
3 53 54 52
3 55 47 46
3 56 57 54
3 58 55 59
3 60 61 62
3 63 64 60
3 22 65 66
3 22 17 65
3 16 1 0
3 25 67 26
3 15 4 3
3 9 6 11
3 20 13 21
3 68 69 70
3 10 11 14
3 15 8 7
3 16 5 4
3 61 71 62
3 68 9 10
3 10 13 20
3 17 2 1
3 63 72 66
3 20 68 10
3 19 21 67
3 73 15 7
3 74 4 15
3 25 19 67
3 24 26 37
3 24 75 25
3 39 76 40
3 36 24 37
3 30 27 32
3 77 34 76
3 78 79 80
3 31 32 35
3 78 30 31
3 31 34 77
3 36 29 28
3 78 31 77
3 39 77 76
3 81 36 28
3 38 82 39
3 38 40 42
3 41 42 57
3 55 50 59
3 83 84 85
3 51 48 47
3 56 41 57
3 53 52 51
3 86 83 87
3 87 85 71
3 88 51 47
3 47 55 88
3 56 54 53
3 58 59 84
3 55 46 50
3 45 56 53
3 83 89 58
3 83 58 84
3 90 1 16
3 87 83 85
3 61 87 71
3 60 62 72
3 63 66 65
3 91 16 4
3 92 17 1
3 63 60 72
3 22 18 17
3 65 92 63
3 92 65 17
3 93 61 60
3 94 92 90
3 64 63 92
3 95 24 36
3 96 87 61
3 93 60 64
3 96 61 93
3 86 87 96
3 97 53 51
3 44 41 56
3 89 83 86
3 88 55 58
3 98 99 100
3 100 43 45
3 88 58 89
3 97 51 88
3 101 38 41
3 98 88 89
3 97 45 53
3 44 56 45
3 102 86 96
3 101 41 44
3 82 38 101
3 78 77 39
3 103 81 80
3 80 28 30
3 78 39 82
3 80 30 78
3 104 101 44
3 81 28 80
3 105 82 101
3 106 96 93
3 95 36 81
3 75 24 95
3 107 19 25
3 108 109 74
3 107 25 75
3 68 20 19
3 110 73 70
3 70 7 9
3 68 19 107
3 70 9 68
3 111 93 64
3 73 7 70
3 112 107 75
3 113 75 95
3 74 15 73
3 102 114 115
3 91 4 74
3 90 92 1
3 91 109 116
3 90 16 91
3 90 91 116
3 111 64 94
3 109 91 74
3 108 74 73
3 110 70 69
3 117 105 104
3 110 108 73
3 110 118 108
3 69 68 107
3 69 119 110
3 112 69 107
3 120 95 81
3 113 112 75
3 69 112 119
3 121 109 108
3 120 113 95
3 103 80 79
3 103 120 81
3 103 122 120
3 79 78 82
3 79 123 103
3 105 79 82
3 104 105 101
3 43 104 44
3 100 97 98
3 124 125 126
3 100 45 97
3 100 126 43
3 98 97 88
3 115 89 86
3 115 98 89
3 127 116 109
3 102 115 86
3 128 94 116
3 106 102 96
3 106 129 102
3 94 90 116
3 111 106 93
3 94 64 92
3 128 111 94
3 130 113 120
3 131 106 111
3 129 106 131
3 98 115 99
3 114 102 129
3 125 104 43
3 99 115 114
3 125 43 126
3 79 105 123
3 132 133 130
3 114 134 124
3 117 104 125
3 132 130 122
3 123 105 117
3 130 120 122
3 135 112 113
3 131 134 129
3 132 117 125
3 135 113 130
3 121 127 109
3 119 112 135
3 133 135 130
3 121 108 118
3 121 133 136
3 127 136 131
3 127 128 116
3 132 125 124
3 136 127 121
3 133 118 135
3 133 137 136
3 133 121 118
3 132 122 117
3 131 136 134
3 124 126 114
3 137 133 132
3 128 131 111
3 128 127 131
3 119 118 110
3 119 135 118
3 123 122 103
3 123 117 122
3 99 126 100
3 99 114 126
3 114 129 134
3 137 132 124
3 134 137 124
3 134 136 137
CELL_TYPES 234
5
5
5
5
5
5
5
5
5
5
5
5
5
5
5
5
5
5
5
5
5
5
5
5
5
5
5
5
5
5
5
5
5
5
5
5
5
5
5
5
5
5
5
5
5
5
5
5
5
5
5
5
5
5
5
5
5
5
5
5
5
5
5
5
5
5
5
5
5
5
5
5
5
5
5
5
5
5
5
5
5
5
5
5
5
5
5
5
5
5
5
5
5
5
5
5
5
5
5
5
5
5
5
5
5
5
5
5
5
5
5
5
5
5
5
5
5
5
5
5
5
5
5
5
5
5
5
5
5
5
5
5
5
5
5
5
5
5
5
5
5
5
5
5
5
5
5
5
5
5
5
5
5
5
5
5
5
5
5
5
5
5
5
5
5
5
5
5
5
5
5
5
5
5
5
5
5
5
5
5
5
5
5
5
5
5
5
5
5
5
5
5
5
5
5
5
5
5
5
5
5
5
5
5
5
5
5
5
5
5
5
5
5
5
5
5
5
5
5
5
5
5
5
5
5
5
5
5
5
5
5
5
5
5

POINT_DATA 138
VECTORS displacements double
-3.73782e-30 -3.73782e-30 0.0
-9.90333e-05 -0.000427911 0.0
-3.73782e-30 -3.73782e-30 0.0
-3.73782e-30 -3.73782e-30 0.0
-1.57471e-05 -0.000382571 0.0
-3.73782e-30 -3.73782e-30 0.0
-3.73782e-30 -3.73782e-30 0.0
4.94612e-05 -0.000385465 0.0
-3.73782e-30 -3.73782e-30 0.0
9.90171e-05 -0.000427908 0.0
0.000161525 -0.000432539 0.0
-3.73782e-30 -3.73782e-30 0.0
-3.73782e-30 -3.73782e-30 0.0
0.000328604 -0.000595639 0.0
-3.73782e-30 -3.73782e-30 0.0
1.57775e-05 -0.000382557 0.0
-4.94698e-05 -0.000385492 0.0
-0.000161527 -0.000432514 0.0
-3.73782e-30 -3.73782e-30 0.0
0.00044328 -0.00133385 0.0
0.000320662 -0.00081325 0.0
0.00050938 -0.0011468 0.0
-0.000328603 -0.00059564 0.0
-3.73782e-30 -3.73782e-30 0.0
0.000543629 -0.00240871 0.0
0.00051398 -0.00187078 0.0
0.000657711 -0.00217967 0.0
0.000703722 -0.00388877 0.0
0.000556135 -0.00352141 0.0
0.000688266 -0.00327983 0.0
0.000569509 -0.00413255 0.0
0.000662051 -0.00475586 0.0
0.00074958 -0.004558 0.0
0.00140822 -0.00623305 0.0
0.00105631 -0.00546744 0.0
0.000902218 -0.00533737 0.0
0.000552237 -0.00295728 0.0
0.00067895 -0.00271503 0.0
0.000309304 -0.0045797 0.0
0.000510685 -0.00467771 0.0
0.000505202 -0.00504149 0.0
0.00010343 -0.00453505 0.0
0.000249024 -0.00496976 0.0
-7.15449e-05 -0.00372664 0.0
-2.55866e-08 -0.0041222 0.0
-0.000168795 -0.00414459 0.0
-0.00105532 -0.00546752 0.0
-0.0006909 -0.00485297 0.0
-0.000772763 -0.00518243 0.0
-0.00140778 -0.00623532 0.0
-0.000901598 -0.0053402 0.0
-0.000510162 -0.00465596 0.0
-0.00050664 -0.00504243 0.0
-0.000308866 -0.00458005 0.0
-0.000249624 -0.00496987 0.0
-0.000664815 -0.00476271 0.0
-0.000103517 -0.00453524 0.0
-2.57809e-07 -0.00494793 0.0
-0.000574461 -0.00412199 0.0
-0.000748797 -0.0045578 0.0
-0.00051414 -0.00187076 0.0
-0.000544074 -0.00240869 0.0
-0.000658019 -0.00217965 0.0
-0.000443424 -0.00133386 0.0
-0.000368553 -0.00154745 0.0
-0.000320609 -0.000813056 0.0
-0.000509384 -0.00114681 0.0
0.000607614 -0.00166244 0.0
0.000259881 -0.000946422 0.0
0.00023309 -0.00124715 0.0
0.000134791 -0.000805479 0.0
-0.000679378 -0.0027147 0.0
-0.000607713 -0.00166247 0.0
6.14758e-05 -0.000783314 0.0
4.50947e-08 -0.000779585 0.0
0.000410776 -0.00208852 0.0
0.000773891 -0.00518244 0.0
0.000697965 -0.00486794 0.0
0.000477988 -0.00431267 0.0
0.000348086 -0.00386808 0.0
0.000438155 -0.00372834 0.0
0.000429718 -0.00316471 0.0
0.000331833 -0.00421585 0.0
-0.000556448 -0.00352161 0.0
-0.00070376 -0.00388619 0.0
-0.000688773 -0.00327889 0.0
-0.000429701 -0.00316475 0.0
-0.000552687 -0.00295714 0.0
-0.000481735 -0.00427691 0.0
-0.000440065 -0.00370826 0.0
-0.000134823 -0.000805501 0.0
-6.14694e-05 -0.000783418 0.0
-0.000259887 -0.000946514 0.0
-0.00041096 -0.00208854 0.0
-0.000233098 -0.00124708 0.0
0.000425676 -0.00262579 0.0
-0.000426296 -0.00262595 0.0
-0.000337532 -0.00420999 0.0
-0.000348801 -0.00385829 0.0
-0.00024413 -0.00342757 0.0
-0.000213239 -0.00377176 0.0
0.00016863 -0.00414397 0.0
-0.000313925 -0.00283038 0.0
0.000320757 -0.00334873 0.0
7.23758e-05 -0.00372615 0.0
0.00021179 -0.00379501 0.0
-0.000306004 -0.00230402 0.0
0.000368635 -0.00154777 0.0
4.19236e-05 -0.00119043 0.0
-4.1856e-05 -0.00119069 0.0
0.000129327 -0.00120305 0.0
-0.000290807 -0.0017944 0.0
0.000291489 -0.00179304 0.0
0.000305777 -0.00230408 0.0
-0.000194058 -0.00297551 0.0
-0.00032631 -0.00333828 0.0
-0.000129355 -0.00120319 0.0
0.00012352 -0.00331127 0.0
0.00010112 -0.00161452 0.0
0.000196683 -0.00160065 0.0
0.000313266 -0.00282928 0.0
1.1315e-06 -0.00161704 0.0
0.000210107 -0.00302789 0.0
0.000232747 -0.00348412 0.0
-5.29473e-05 -0.00289851 0.0
7.27924e-06 -0.00327554 0.0
-0.000128358 -0.00334139 0.0
-0.000101035 -0.00161514 0.0
-0.000196568 -0.00160932 0.0
-0.000207536 -0.00252068 0.0
0.000190354 -0.00249368 0.0
-0.000180878 -0.00204564 0.0
9.19017e-05 -0.00275533 0.0
6.96804e-05 -0.00210382 0.0
-0.000105149 -0.00249535 0.0
0.000187309 -0.00201669 0.0
-5.68014e-05 -0.00202802 0.0
1.96756e-06 -0.00244973 0.0

SCALARS summary double
LOOKUP_TABLE default
5.28607e-30
0.000439221
5.28607e-30
5.28607e-30
0.000382895
5.28607e-30
5.28607e-30
0.000388625
5.28607e-30
0.000439215
0.000461715
5.28607e-30
5.28607e-30
0.000680269
5.28607e-30
0.000382882
0.000388653
0.000461692
5.28607e-30
0.00140558
0.000874185
0.00125484
0.000680269
5.28607e-30
0.00246929
0.0019401
0.00227674
0.00395193
0.00356505
0.00335127
0.00417161
0.00480172
0.00461922
0.00639014
0.00556855
0.00541309
0.0030084
0.00279863
0.00459014
0.0047055
0.00506674
0.00453623
0.004976
0.00372733
0.0041222
0.00414802
0.00556843
0.0049019
0.00523973
0.00639227
0.00541578
0.00468383
0.00506782
0.00459045
0.00497614
0.00480889
0.00453642
0.00494793
0.00416183
0.0046189
0.00194012
0.00246937
0.00227681
0.00140563
0.00159073
0.000873985
0.00125485
0.00177
0.000981454
0.00126874
0.000816679
0.00279842
0.00177006
0.000785723
0.000779585
0.00212853
0.0052399
0.00491772
0.00433908
0.00388371
0.003754
0.00319375
0.00422889
0.00356531
0.0039494
0.00335045
0.00319378
0.00300834
0.00430396
0.00373428
0.000816706
0.000785825
0.000981545
0.00212859
0.00126868
0.00266007
0.00266033
0.0042235
0.00387403
0.00343625
0.00377778
0.0041474
0.00284774
0.00336405
0.00372685
0.00380092
0.00232425
0.00159107
0.00119117
0.00119142
0.00120998
0.00181782
0.00181657
0.00232428
0.00298183
0.00335419
0.00121012
0.00331358
0.00161768
0.00161269
0.00284657
0.00161704
0.00303517
0.00349189
0.002899
0.00327554
0.00334385
0.0016183
0.00162128
0.00252921
0.00250094
0.00205362
0.00275686
0.00210498
0.00249756
0.00202537
0.00202881
0.00244973

CELL_DATA 234
VECTORS stress double
0.313329 1.08044 0.0887683
0.304204 1.04898 0.0153279
0.306505 1.05691 -0.0481446
0.217494 1.04166 -0.06131
0.177395 1.05761 -0.0999407
0.390017 1.34489 -0.263393
0.304192 1.04894 -0.0153576
0.306526 1.05699 0.0481529
0.121156 1.12662 -0.129338
0.326329 1.12527 0.149187
-0.00132201 1.10529 -0.0272601
0.390018 1.34489 0.263392
-0.00122097 1.11209 0.0150948
0.0152439 1.26371 0.0488295
0.00753339 1.20218 0.0563153
0.0191828 1.21268 0.0867436
-0.208086 1.79191 0.208086
0.0347987 1.1644 0.102239
0.00961781 1.1708 0.0316122
-0.128244 0.994711 -0.0110444
-0.136929 0.995927 -0.00572805
-0.0576347 1.00476 -0.00542236
-0.276853 1.06026 -0.0210449
-0.209703 1.7903 -0.209703
-0.259993 1.0012 0.0153636
-0.241492 1.00006 0.00926352
-0.103039 1.0963 0.00774247
-0.22616 0.998379 0.00326899
0.0230643 1.2265 -0.0864462
-0.00123495 1.11208 -0.0148714
0.0474823 1.1184 0.00565242
0.0797223 1.16294 0.0774712
0.103303 1.11737 0.0678991
0.217492 1.0417 0.0613406
0.0132532 1.07346 0.00878294
0.233019 1.02832 -2.66707e-05
0.313326 1.08044 -0.0887538
0.0796945 1.16291 -0.0774794
0.12461 1.10091 -0.0298342
0.326341 1.12531 -0.149182
0.229295 1.03087 -0.0294201
0.229223 1.0309 0.0293995
0.00863623 1.10899 -0.0203437
0.196985 1.12159 -0.0832285
0.103301 1.11739 -0.0679132
0.177415 1.05761 0.0999651
0.0259981 1.07393 0.0126623
0.0804783 1.12273 -0.0652398
0.0260285 1.0739 -0.0126376
0.241459 1.07282 -0.0257576
0.244519 1.06797 -4.09457e-05
-0.00176421 1.10398 0.00175403
0.0086254 1.10962 0.0205846
0.0286019 1.12073 0.0260999
-0.264388 1.00435 -0.0122716
-4.06956e-05 1.13443 0.0242793
0.0339448 1.39381 0.0834399
-0.276396 1.06087 0.021146
0.0173582 1.07256 0.0556237
0.0348752 1.62186 0.143952
0.043225 1.21846 0.105159
-0.110764 1.09576 -0.00912321
0.00174706 1.16712 0.0362842
0.076947 1.04054 0.0467145
-0.102762 0.993346 -0.0127071
0.028097 1.17476 0.0695199
-0.123974 1.00834 0.00381109
-0.239748 1.0001 -0.00851476
-0.225863 0.998797 -0.00289751
0.0319661 1.62728 -0.143701
0.0142809 1.26004 -0.0472928
-0.0888578 0.999669 0.0106837
-0.13903 0.996334 5.9265e-05
-0.125385 0.994424 0.0118836
0.0272355 1.17524 -0.0696296
0.00916764 1.1694 -0.0310737
-0.0797017 1.04394 -0.0234402
0.0943354 1.05718 -0.0649544
-0.135866 0.995846 0.0063593
0.030095 1.39761 -0.0802046
0.0377364 1.17012 -0.107128
-0.135207 0.998118 0.000483923
0.0340799 1.21681 -0.0909061
0.00627181 1.20679 -0.0545329
0.228976 1.0865 0.053621
0.00163168 1.16781 -0.0354498
-6.60809e-05 1.13417 -0.0240402
0.0131081 1.07333 -0.00864049
-0.00133399 1.10522 0.027249
0.241436 1.07302 0.0257521
0.196986 1.12151 0.0832251
-0.0017842 1.10398 -0.00168935
0.121163 1.1266 0.129333
0.0954032 1.13241 0.0520867
0.0804717 1.12269 0.0652117
0.0282744 1.12064 -0.0258289
0.124588 1.10073 0.0298507
0.0290657 1.11302 0.0164293
0.0239727 1.14139 0.048784
0.0243665 1.14126 -0.0485445
0.0105725 1.1119 -0.0152983
0.00792078 1.11366 -0.0377828
0.0109077 1.1174 -0.0574158
-0.116724 1.0141 -0.00682732
-0.138903 0.99677 -0.000131835
0.0192139 1.11958 -0.0769981
0.0390674 1.23088 -0.103185
0.0289381 1.04443 -0.0564803
-0.00553659 0.991332 -0.0104619
0.0429273 1.10285 -0.0956761
-0.0100521 0.996952 -0.00880664
-0.136113 0.998742 -0.000940533
0.0215861 1.08752 -0.0618046
-0.0476797 0.98984 0.000161051
-0.0615297 0.99133 0.000653097
0.0400167 1.12584 -0.0605064
-0.061175 0.99174 -0.00116824
-0.0470563 0.991376 -0.00121443
-0.0902627 1.04079 0.0216766
0.0388202 1.12367 0.0741244
0.032268 1.21515 0.0906885
-0.011607 0.995542 0.00536181
0.0454841 1.0979 0.0942701
-0.0572259 1.00536 0.00584186
0.0204867 1.11849 0.076685
-0.0400675 1.01555 0.0222933
0.0430856 1.12386 -0.0395132
0.011397 1.1178 0.0571384
0.00794982 1.11338 0.0382427
0.0477276 1.11848 -0.0055781
0.137623 1.072 -0.00019409
0.0107104 1.11181 0.0154519
0.0954519 1.13244 -0.0520545
0.173544 1.09003 -0.0233098
0.228983 1.08648 -0.0535826
0.0291032 1.11304 -0.0164503
0.135791 1.08838 -0.0608116
0.0586259 1.12584 -0.0100275
0.166032 1.06198 -0.0357246
0.0592377 1.12588 0.010138
0.0434744 1.12369 0.0397211
0.178483 1.05352 -0.011595
0.0461155 1.08848 -0.0533505
0.178323 1.05357 0.0114948
0.135852 1.08838 0.0608543
0.13125 1.07654 0.0134726
0.165978 1.06206 0.035791
0.173523 1.09021 0.0233893
0.0417972 1.10594 0.000182258
0.186473 1.08167 0.00777509
0.1865 1.08117 -0.00787684
0.113084 1.09606 -0.0265659
0.00182602 1.02173 0.0215915
0.13139 1.07635 -0.0133931
0.134855 1.08829 -0.00496843
0.0950526 1.13587 -0.0325293
0.112574 1.09932 -0.006977
0.041946 1.10595 -0.000298068
0.0391205 1.12584 0.0609759
0.0273915 1.10093 0.0294094
0.0849727 1.11909 -0.00599438
0.141051 1.08382 -0.000199905
0.0254112 1.09349 0.0515355
0.0494038 1.06482 0.0749985
0.0310962 1.08324 0.0676902
0.047005 1.08785 0.0534777
0.0196154 1.0517 0.062289
0.0303254 1.05726 0.0475214
0.00713617 0.993437 0.0277964
-0.00522935 0.991903 0.0109007
-0.0102318 0.991022 2.95133e-05
0.0119538 0.993063 -0.0278128
0.0388391 1.04985 -0.0120437
-0.0392356 1.0151 -0.0223224
0.00434708 1.02541 -0.0225015
0.0309589 1.05452 -0.0658443
0.0373585 1.12485 -0.074285
0.0467493 1.06974 -0.0757227
0.134973 1.08938 0.00499794
0.0304124 1.08204 -0.0681815
0.112455 1.09883 0.00692871
0.0256839 1.09596 -0.050835
0.0540033 1.10418 -0.0416869
0.113131 1.09609 0.0267146
0.0271407 1.10074 -0.0292621
0.0950468 1.13586 0.0325078
0.0844036 1.11887 0.0055946
0.0540685 1.1018 0.0408637
0.0644874 1.11054 -0.0218584
0.0453181 1.08199 -0.0354935
0.0346083 1.06295 -0.0488068
0.0412068 1.06996 -0.050863
-0.00198875 1.01945 -0.00106512
0.0419867 1.04404 -0.0568473
0.0256212 1.00155 -0.00996749
0.0234492 1.03799 0.0539498
0.0590919 1.06149 0.0266859
0.0558286 1.06683 -0.0271442
0.0282129 1.00558 0.0103769
0.0586521 1.07494 0.0279013
0.0324794 1.00898 0.0297155
0.0418408 1.06471 0.0493713
0.0657381 1.11087 0.0218702
0.062752 1.09145 -0.0234421
0.0392568 1.04445 0.0123323
0.0454939 1.08282 0.0352853
0.105606 1.08489 0.000959666
0.0562872 1.09803 0.0156764
0.0755441 1.08868 0.0158315
0.104379 1.0841 -0.00104819
0.0845152 1.0861 -0.000532109
0.0794683 1.09192 -0.00884354
0.0921821 1.09444 0.00426706
0.0479745 1.02234 0.00188117
0.104175 1.07928 -0.00244359
0.073722 1.08767 0.0131054
0.0779192 1.06501 0.0018683
0.10326 1.07974 0.00145395
0.047229 1.03612 0.0347104
0.073919 1.07155 -0.0165882
0.0439615 1.0244 -0.0249946
0.0670669 1.07097 0.00166443
0.0562368 1.09786 -0.0164864
0.0938584 1.09453 -0.00574438
0.092234 1.09428 -0.00369597
0.0950707 1.09763 0.00514329
0.0444476 1.04703 0.0569858
0.0371185 1.04981 0.0340803
0.0281998 1.00798 -0.0312421
0.041507 1.05983 -0.040209
0.0551504 1.06441 -0.0282476
0.0601155 1.06441 0.00552346
0.0615804 1.04095 -0.0105957
0.0740723 1.08254 -0.00720379

SCALARS mises_stress double
LOOKUP_TABLE default
0.975007
0.935147
0.945524
0.957645
0.996174
1.28235
0.935112
0.945591
1.09437
1.03551
1.10696
1.28235
1.113
1.259
1.20239
1.21255
1.93831
1.16098
1.16731
1.06481
1.07102
1.03483
1.22298
1.93817
1.1537
1.14026
1.15136
1.1286
1.22432
1.113
1.09548
1.13317
1.07591
0.957688
1.067
0.933872
0.974996
1.13315
1.04547
1.03555
0.938879
0.93893
1.10526
1.04719
1.07594
0.99617
1.06139
1.0906
1.06136
0.9758
0.969129
1.10486
1.10591
1.10763
1.15958
1.13523
1.38471
1.22328
1.06834
1.62396
1.2112
1.15524
1.16794
1.00753
1.04874
1.1672
1.07571
1.13915
1.12882
1.63064
1.25563
1.04709
1.07263
1.06288
1.1681
1.16609
1.08674
1.01954
1.07032
1.38977
1.16657
1.07214
1.21042
1.20737
0.996368
1.16861
1.13497
1.06694
1.1069
0.976002
1.04711
1.10487
1.09434
1.09159
1.09056
1.10768
1.0453
1.09914
1.13275
1.1324
1.10697
1.11165
1.11642
1.07728
1.07299
1.11808
1.22492
1.0349
0.994277
1.09464
1.00213
1.07329
1.0822
1.01452
1.02348
1.11132
1.0237
1.01572
1.08937
1.11221
1.20959
1.00144
1.0882
1.03521
1.11632
1.03689
1.10507
1.11654
1.11141
1.09544
1.01024
1.10682
1.09159
1.01525
0.996345
1.09914
1.03262
1.09784
0.991398
1.0976
1.10474
0.976797
1.07017
0.976896
1.0326
1.01756
0.991501
1.01545
1.08565
1.00163
1.00113
1.04514
1.0215
1.0173
1.02756
1.09291
1.04765
1.08558
1.11183
1.08869
1.07916
1.02063
1.08469
1.04907
1.07444
1.06915
1.0476
1.04568
0.991059
0.994707
0.996177
0.988315
1.03119
1.036
1.02399
1.04563
1.1141
1.05533
1.0286
1.07367
1.04721
1.08692
1.0806
1.04516
1.08861
1.09289
1.07919
1.07811
1.0804
1.06184
1.04949
1.05366
1.02044
1.02842
0.989142
1.03072
1.03424
1.0411
0.991938
1.04797
0.994468
1.04791
1.08017
1.06224
1.02561
1.06257
1.03613
1.07134
1.0533
1.03587
1.04641
1.05455
1.05141
0.99922
1.03115
1.05299
1.02828
1.03199
1.01511
1.03697
1.00408
1.03906
1.07123
1.0508
1.05122
1.05335
1.03027
1.03344
0.995652
1.04203
1.03909
1.0357
1.01173
1.04754

VECTORS deformation double
0 0.000478519 0.000110746
0 0.000464584 1.91229e-05
0 0.000468098 -6.00643e-05
-4.09032e-05 0.000473205 -7.64892e-05
-6.25305e-05 0.000486542 -0.000124684
0 0.000595639 -0.000328604
0 0.000464567 -1.91598e-05
0 0.000468131 6.00748e-05
-9.9402e-05 0.000527797 -0.00016136
0 0.000498374 0.000186123
-0.000155637 0.00053466 -3.40093e-05
0 0.00059564 0.000328603
-0.000156541 0.00053793 1.8832e-05
-0.000169841 0.000608939 6.09188e-05
-0.000164941 0.000580268 7.02579e-05
-0.000160781 0.000583713 0.00010822
-0.000351906 0.000895677 0.000259604
-0.000146459 0.000558177 0.000127551
-0.000159533 0.000564803 3.94388e-05
-0.000201504 0.000498986 -1.37788e-05
-0.000205874 0.000500792 -7.14621e-06
-0.00016877 0.000493943 -6.76484e-06
-0.000282558 0.000551524 -2.62553e-05
-0.000352461 0.000895121 -0.000261621
-0.000266123 0.0005206 1.91674e-05
-0.000257016 0.000517451 1.1557e-05
-0.000203562 0.000544575 9.65937e-06
-0.000249367 0.00051449 4.07834e-06
-0.000160842 0.00058985 -0.000107849
-0.000156547 0.000537931 -1.85533e-05
-0.000133876 0.000534155 7.05186e-06
-0.00012453 0.000551168 9.66517e-05
-0.000106737 0.000525826 8.47097e-05
-4.09094e-05 0.000473224 7.65275e-05
-0.000144125 0.000517223 1.09574e-05
-3.15246e-05 0.000464575 -3.32739e-08
0 0.000478516 -0.000110728
-0.00012454 0.000551159 -9.66619e-05
-9.41266e-05 0.000514881 -3.72206e-05
0 0.000498392 -0.000186117
-3.36836e-05 0.000466332 -3.67039e-05
-3.37227e-05 0.000466358 3.66783e-05
-0.00015134 0.000535052 -2.53804e-05
-6.20289e-05 0.00051473 -0.000103834
-0.000106742 0.000525838 -8.47273e-05
-6.25199e-05 0.000486537 0.000124715
-0.000138027 0.000515661 1.57972e-05
-0.000118527 0.000531621 -8.1392e-05
-0.00013801 0.000515646 -1.57664e-05
-3.36836e-05 0.000484909 -3.21348e-05
-3.15246e-05 0.000482137 -5.10831e-08
-0.000155666 0.000534085 2.1883e-06
-0.000151434 0.000535359 2.5681e-05
-0.000143332 0.00053793 3.25618e-05
-0.00026869 0.00052274 -1.53098e-05
-0.000159103 0.00054857 3.02904e-05
-0.000179042 0.000669228 0.000104098
-0.000282422 0.000551754 2.63814e-05
-0.000142014 0.000516213 6.93952e-05
-0.000210572 0.000779374 0.000179592
-0.000149965 0.000583134 0.000131195
-0.000207222 0.000545398 -1.13819e-05
-0.000162823 0.000564127 4.52675e-05
-0.000108708 0.00049237 5.82802e-05
-0.00018899 0.000494752 -1.58531e-05
-0.000151153 0.000564127 8.67318e-05
-0.00020135 0.000504975 4.75464e-06
-0.000256178 0.000517226 -1.06229e-05
-0.000249281 0.00051465 -3.61488e-06
-0.000212739 0.000782402 -0.000179279
-0.000169792 0.0006073 -5.90017e-05
-0.000183154 0.00049586 1.33287e-05
-0.000206947 0.000501283 7.3938e-08
-0.000200081 0.000498446 1.48257e-05
-0.000151636 0.000564478 -8.68686e-05
-0.000159555 0.000564191 -3.8767e-05
-0.000184934 0.000515982 -2.92436e-05
-0.000102634 0.00049798 -8.1036e-05
-0.000205349 0.000500603 7.93375e-06
-0.000181437 0.000671607 -0.000100062
-0.000145841 0.000560531 -0.000133651
-0.000205349 0.000501609 6.03733e-07
-0.000154156 0.000583621 -0.000113413
-0.000166198 0.000582676 -6.80342e-05
-4.16382e-05 0.000493276 6.68966e-05
-0.000162976 0.000564478 -4.42266e-05
-0.000159079 0.000548449 -2.99921e-05
-0.000144177 0.000517182 -1.07797e-05
-0.000155633 0.000534628 3.39953e-05
-3.37227e-05 0.000485009 3.21279e-05
-6.20171e-05 0.000514691 0.00010383
-0.000155676 0.000534088 -2.1076e-06
-9.93957e-05 0.000527786 0.000161353
-0.000112668 0.000534211 6.49825e-05
-0.000118524 0.000531603 8.1357e-05
-0.000143477 0.000537931 -3.22237e-05
-9.41114e-05 0.000514795 3.72411e-05
-0.000142026 0.000534133 2.04969e-05
-0.000148468 0.00054857 6.08621e-05
-0.000148258 0.000548449 -6.05632e-05
-0.000150812 0.000536187 -1.90859e-05
-0.000152341 0.000537411 -4.71372e-05
-0.00015142 0.000538797 -7.1631e-05
-0.000198652 0.000506744 -8.51764e-06
-0.000206947 0.000501476 -1.64475e-07
-0.00014771 0.00053869 -9.60615e-05
-0.000153717 0.000589722 -0.000128731
-0.000132469 0.000500985 -7.04638e-05
-0.000141694 0.000480144 -1.3052e-05
-0.000133897 0.000527271 -0.000119364
-0.000144666 0.000483495 -1.0987e-05
-0.000205874 0.000502038 -1.17339e-06
-0.000142067 0.000522852 -7.71063e-05
-0.000161863 0.000485332 2.00924e-07
-0.00016877 0.000487995 8.14792e-07
-0.000138528 0.000538797 -7.54868e-05
-0.000168655 0.000488143 -1.45747e-06
-0.000161777 0.000485988 -1.5151e-06
-0.000189599 0.000515939 2.70434e-05
-0.000138803 0.000537918 9.24763e-05
-0.0001548 0.000583074 0.000113141
-0.00014522 0.000483031 6.6893e-06
-0.000131967 0.000524523 0.00011761
-0.000168655 0.000494174 7.2882e-06
-0.000146941 0.000537982 9.56708e-05
-0.000161788 0.000496698 2.78127e-05
-0.000136767 0.000537411 -4.9296e-05
-0.00015124 0.000538924 7.12848e-05
-0.000152288 0.000537272 4.77109e-05
-0.000133768 0.000534159 -6.95914e-06
-8.37796e-05 0.000499075 -2.42144e-07
-0.000150732 0.000536123 1.92775e-05
-0.000112648 0.000534216 -6.49423e-05
-6.8938e-05 0.000502756 -2.90808e-05
-4.16326e-05 0.000493267 -6.68487e-05
-0.00014201 0.000534137 -2.05231e-05
-8.69629e-05 0.000507254 -7.58674e-05
-0.00012953 0.000536188 -1.25101e-05
-6.86371e-05 0.000490246 -4.45694e-05
-0.000129239 0.000536121 1.2648e-05
-0.000136555 0.000537272 4.95554e-05
-6.14307e-05 0.000484411 -1.44658e-05
-0.000130341 0.000519878 -6.65591e-05
-6.15145e-05 0.000484456 1.43407e-05
-8.6933e-05 0.000507244 7.59208e-05
-8.74991e-05 0.000502167 1.68081e-05
-6.86739e-05 0.000490291 4.46522e-05
-6.89745e-05 0.000502849 2.918e-05
-0.000134877 0.000528927 2.27382e-07
-6.15145e-05 0.000496903 9.70006e-06
-6.14307e-05 0.000496655 -9.82701e-06
-9.90202e-05 0.000514152 -3.31432e-05
-0.000142396 0.000493809 2.69371e-05
-8.74034e-05 0.000502052 -1.6709e-05
-8.74034e-05 0.000507343 -6.19853e-06
-0.000113322 0.000535931 -4.05829e-05
-9.97242e-05 0.000515801 -8.70438e-06
-0.000134806 0.00052891 -3.71865e-07
-0.000138962 0.000538924 7.60725e-05
-0.00014114 0.000528523 3.66907e-05
-0.000115843 0.000529229 -7.47848e-06
-8.37796e-05 0.00050431 -2.49398e-07
-0.000141054 0.000525203 6.42948e-05
-0.000125432 0.000507975 9.35668e-05
-0.000136868 0.000519448 8.44491e-05
-0.000129822 0.000519448 6.67178e-05
-0.000137997 0.00050581 7.77106e-05
-0.000133598 0.000506997 5.92868e-05
-0.000135861 0.000479385 3.46784e-05
-0.000141625 0.000480377 1.35995e-05
-0.000143921 0.000480652 3.68202e-08
-0.000133479 0.000478528 -3.46987e-05
-0.000128442 0.00050222 -1.50255e-05
-0.000161323 0.000496365 -2.78491e-05
-0.000141694 0.000495238 -2.80725e-05
-0.000132907 0.000505582 -8.21462e-05
-0.000139675 0.000538691 -9.26767e-05
-0.000127406 0.000510727 -9.44703e-05
-8.74991e-05 0.000507854 6.23534e-06
-0.00013703 0.000518964 -8.50621e-05
-9.97124e-05 0.000515578 8.64413e-06
-0.00014127 0.000526361 -6.34208e-05
-0.000128727 0.000526361 -5.20078e-05
-9.90016e-05 0.00051416 3.33286e-05
-0.000141235 0.000528468 -3.65068e-05
-0.000113323 0.000535925 4.05562e-05
-0.000116087 0.000529202 6.97972e-06
-0.000128362 0.000525203 5.09808e-05
-0.00012455 0.000527967 -2.72702e-05
-0.000129816 0.00051685 -4.42811e-05
-0.000132325 0.000509147 -6.08905e-05
-0.000130117 0.000511612 -6.34557e-05
-0.000143921 0.000493241 -1.32883e-06
-0.000126105 0.000498967 -7.09217e-05
-0.000128061 0.000480717 -1.24353e-05
-0.000134221 0.000498643 6.73068e-05
-0.00012028 0.000505005 3.32929e-05
-0.000122607 0.000508046 -3.38646e-05
-0.000127372 0.000482301 1.29461e-05
-0.00012238 0.000511574 3.48092e-05
-0.000125785 0.000483345 3.70726e-05
-0.000129074 0.000508982 6.15947e-05
-0.000123992 0.000527954 2.72849e-05
-0.000122712 0.00051898 -2.9246e-05
-0.000127482 0.000499548 1.53856e-05
-0.000129847 0.000517229 4.40214e-05
-0.000101069 0.000509798 1.19726e-06
-0.000126761 0.00052307 1.95575e-05
-0.000116138 0.000515847 1.97511e-05
-0.000101553 0.00050959 -1.3077e-06
-0.000111438 0.000513342 -6.63849e-07
-0.000114695 0.000516865 -1.1033e-05
-0.0001089 0.000516298 5.32351e-06
-0.000120166 0.000487633 2.34692e-06
-0.000100975 0.000507286 -3.04858e-06
-0.000116877 0.000515614 1.63501e-05
-0.000111671 0.000504071 2.33086e-06
-0.000101481 0.000507635 1.81392e-06
-0.000122459 0.000494403 4.3304e-05
-0.000114522 0.000507792 -2.06952e-05
-0.000122396 0.000489193 -3.11828e-05
-0.000117753 0.000508471 2.07651e-06
-0.000126761 0.000522993 -2.05681e-05
-0.000108103 0.000516109 -7.16658e-06
-0.000108853 0.000516215 -4.61103e-06
-0.00010795 0.000517434 6.41667e-06
-0.000125334 0.000500067 7.10945e-05
-0.000129268 0.000502438 4.25179e-05
-0.000127715 0.000483463 -3.89771e-05
-0.000128551 0.000506671 -5.0164e-05
-0.000122596 0.000506972 -3.52412e-05
-0.000120195 0.000506274 6.89097e-06
-0.000116197 0.000494726 -1.3219e-05
-0.000115989 0.000513085 -8.98731e-06

SCALARS mises_deformation double
LOOKUP_TABLE default
0.000515533
0.000465764
0.00047952
0.000512351
0.000563645
0.000823849
0.00046575
0.000479556
0.000647322
0.00059355
0.000629895
0.000823848
0.00063178
0.000717083
0.000688793
0.000703957
0.00120144
0.00068086
0.00066274
0.000625066
0.000629627
0.000596627
0.000736154
0.00120262
0.000693896
0.000683525
0.000670174
0.000674708
0.000709619
0.00063176
0.000612294
0.000644947
0.000604598
0.000512389
0.000602658
0.000481113
0.000515519
0.000644948
0.000571473
0.00059356
0.000488211
0.000488251
0.000626172
0.00057712
0.000604619
0.000563654
0.000597395
0.00061608
0.000597367
0.000505671
0.000498648
0.000626603
0.000626571
0.000624657
0.000697574
0.000645193
0.000795143
0.000736281
0.000611883
0.000955321
0.000708252
0.000673652
0.000665395
0.000563879
0.000612172
0.000670017
0.000630306
0.000682635
0.000674788
0.000959313
0.000714983
0.000608912
0.000630754
0.000623594
0.000670718
0.00066204
0.00063121
0.000573871
0.000629093
0.000797413
0.000686149
0.00062991
0.000702092
0.000691273
0.000528223
0.000665629
0.000645018
0.000602643
0.000629859
0.00050579
0.000577075
0.000626612
0.000647304
0.000609042
0.000616047
0.000624701
0.000571384
0.000618539
0.000644615
0.000644277
0.000626257
0.000632893
0.000640475
0.000630187
0.000630939
0.000647502
0.000715379
0.000591435
0.000564942
0.000639755
0.00057009
0.000630704
0.000621026
0.000583357
0.000590748
0.000633423
0.000590816
0.000583939
0.000634158
0.000639486
0.000701856
0.000569813
0.000635024
0.000596789
0.000646163
0.000596293
0.000623142
0.000640363
0.000632852
0.000612225
0.000545809
0.000626158
0.000609022
0.000542874
0.000528193
0.000618535
0.000571182
0.000611716
0.000533536
0.00061147
0.000622931
0.000518472
0.000606888
0.000518555
0.000571176
0.000551919
0.000533622
0.000543004
0.000607698
0.000530609
0.00053032
0.000573031
0.000580187
0.000551737
0.000556323
0.000604762
0.000572416
0.000607634
0.000634035
0.000614729
0.0005958
0.000550998
0.000618238
0.000603119
0.000617293
0.000606193
0.000602332
0.000594283
0.000563033
0.000565162
0.000566494
0.000560617
0.000577846
0.000595655
0.00058127
0.000600598
0.000640863
0.000607386
0.000556889
0.000617188
0.000572186
0.000619224
0.000607864
0.000573059
0.000614705
0.000604752
0.000595912
0.000606241
0.000601873
0.000597465
0.000596017
0.000597768
0.000578786
0.000585562
0.000556339
0.000589219
0.00057755
0.000582129
0.00055747
0.000585599
0.000560682
0.00059397
0.000601502
0.000592157
0.000574625
0.000597796
0.000567132
0.000597598
0.000583666
0.000567231
0.000577187
0.000583053
0.00057856
0.00055753
0.000564612
0.000583596
0.000568211
0.000565259
0.000570614
0.000574809
0.000563101
0.00057645
0.000597624
0.000577929
0.000578431
0.000579113
0.000586186
0.000582689
0.000562451
0.000588153
0.000581316
0.000575981
0.000562375
0.000580055
